
50
13946

262 329
896 984
908 960
894 919
878 790
885 876
64 1
596 627
182 248
744 731
479 433
478 561
573 543
519 577
866 828
953 982
275 346
735 807
949 890
401 393
41 124
579 498
720 765
481 525
85 185
666 706
337 325
967 887
129 169
594 594
302 386
1023 985
99 139
856 881
372 418
436 372
306 209
422 495
920 930
921 1000
990 940
694 612
162 237
545 508
611 650
286 296
1002 987
72 85
265 235
169 204
